language Essence 1.3

letting codeWordLength be 15
letting dist be
        function((1, 1) --> 0, (1, 2) --> 0, (1, 3) --> 2, (1, 4) --> 0, (1, 5) --> 2, (1, 6) --> 0, (1, 7) --> 2,
                 (1, 8) --> 1, (1, 9) --> 1, (2, 1) --> 0, (2, 2) --> 0, (2, 3) --> 0, (2, 4) --> 0, (2, 5) --> 0,
                 (2, 6) --> 2, (2, 7) --> 1, (2, 8) --> 0, (2, 9) --> 1, (3, 1) --> 2, (3, 2) --> 0, (3, 3) --> 0,
                 (3, 4) --> 1, (3, 5) --> 2, (3, 6) --> 2, (3, 7) --> 2, (3, 8) --> 0, (3, 9) --> 2, (4, 1) --> 0,
                 (4, 2) --> 0, (4, 3) --> 1, (4, 4) --> 0, (4, 5) --> 1, (4, 6) --> 1, (4, 7) --> 1, (4, 8) --> 1,
                 (4, 9) --> 1, (5, 1) --> 2, (5, 2) --> 0, (5, 3) --> 2, (5, 4) --> 1, (5, 5) --> 0, (5, 6) --> 1,
                 (5, 7) --> 1, (5, 8) --> 1, (5, 9) --> 1, (6, 1) --> 0, (6, 2) --> 2, (6, 3) --> 2, (6, 4) --> 1,
                 (6, 5) --> 1, (6, 6) --> 0, (6, 7) --> 2, (6, 8) --> 2, (6, 9) --> 2, (7, 1) --> 2, (7, 2) --> 1,
                 (7, 3) --> 2, (7, 4) --> 1, (7, 5) --> 1, (7, 6) --> 2, (7, 7) --> 0, (7, 8) --> 0, (7, 9) --> 0,
                 (8, 1) --> 1, (8, 2) --> 0, (8, 3) --> 0, (8, 4) --> 1, (8, 5) --> 1, (8, 6) --> 2, (8, 7) --> 0,
                 (8, 8) --> 0, (8, 9) --> 0, (9, 1) --> 1, (9, 2) --> 1, (9, 3) --> 2, (9, 4) --> 1, (9, 5) --> 1,
                 (9, 6) --> 2, (9, 7) --> 0, (9, 8) --> 0, (9, 9) --> 0)
letting maxDist be 22
letting minDist be 7
letting nbCharacter be 9
letting numOfCodeWords be 41
